NAME refraction_srl_ilp
* Max problem is converted into Min one
ROWS
 N  OBJ
 L  constraint1_4140
 L  constraint1_3685
 L  constraint1_3683
 L  constraint1_3681
 L  constraint1_3686
 L  constraint1_3682
 L  constraint1_3687
 L  constraint1_3684
 L  constraint1_3680
 L  constraint1_3120
 L  constraint1_5010
 L  constraint1_5751
 L  constraint1_5752
 L  constraint1_5750
 L  constraint1_5753
 L  constraint1_5291
 L  constraint1_5292
 L  constraint1_5293
 L  constraint1_5290
 L  constraint1_4660
 L  constraint2_4140
 L  constraint2_4141
 L  constraint2_4142
 L  constraint2_4143
 L  constraint2_3680
 L  constraint2_3681
 L  constraint2_3682
 L  constraint2_3683
 L  constraint2_3120
 L  constraint2_3121
 L  constraint2_3122
 L  constraint2_3123
 L  constraint2_5010
 L  constraint2_5011
 L  constraint2_5012
 L  constraint2_5013
 L  constraint2_5750
 L  constraint2_5751
 L  constraint2_5752
 L  constraint2_5753
 L  constraint2_5290
 L  constraint2_5291
 L  constraint2_5292
 L  constraint2_5293
 L  constraint2_4660
 L  constraint2_4661
 L  constraint2_4662
 L  constraint2_4663
COLUMNS
    MARKER    'MARKER'                 'INTORG'
    Z_414_0_0  OBJ       -6.8328596914894900e-03
    Z_414_0_0  constraint1_4140  1
    Z_414_0_0  constraint2_4140  1
    Z_414_0_1  OBJ       -6.1719049497064205e-01
    Z_414_0_1  constraint1_4140  1
    Z_414_0_1  constraint2_4141  1
    Z_414_0_2  OBJ       -6.5413431703591152e-02
    Z_414_0_2  constraint1_4140  1
    Z_414_0_2  constraint2_4142  1
    Z_414_0_3  OBJ       -3.2356928014079467e-02
    Z_414_0_3  constraint1_4140  1
    Z_414_0_3  constraint2_4143  1
    Z_368_5_0  OBJ       -4.5573724712570157e-03
    Z_368_5_0  constraint1_3685  1
    Z_368_5_0  constraint2_3680  1
    Z_368_5_1  OBJ       -4.5288825036746354e-02
    Z_368_5_1  constraint1_3685  1
    Z_368_5_1  constraint2_3681  1
    Z_368_5_2  OBJ       -1.1192011739674672e-01
    Z_368_5_2  constraint1_3685  1
    Z_368_5_2  constraint2_3682  1
    Z_368_5_3  OBJ       -3.2552683629293748e-02
    Z_368_5_3  constraint1_3685  1
    Z_368_5_3  constraint2_3683  1
    Z_368_3_0  OBJ       -1.6919638495607316e-02
    Z_368_3_0  constraint1_3683  1
    Z_368_3_0  constraint2_3680  1
    Z_368_3_1  OBJ       -1.7072816533810098e-02
    Z_368_3_1  constraint1_3683  1
    Z_368_3_1  constraint2_3681  1
    Z_368_3_2  OBJ       -1.8795160462827153e-02
    Z_368_3_2  constraint1_3683  1
    Z_368_3_2  constraint2_3682  1
    Z_368_3_3  OBJ       -1.8267807157476008e-02
    Z_368_3_3  constraint1_3683  1
    Z_368_3_3  constraint2_3683  1
    Z_368_1_0  OBJ       -7.5395284460295648e-04
    Z_368_1_0  constraint1_3681  1
    Z_368_1_0  constraint2_3680  1
    Z_368_1_1  OBJ       -2.2319144207301935e-02
    Z_368_1_1  constraint1_3681  1
    Z_368_1_1  constraint2_3681  1
    Z_368_1_2  OBJ       -4.4611086217316874e-02
    Z_368_1_2  constraint1_3681  1
    Z_368_1_2  constraint2_3682  1
    Z_368_1_3  OBJ       -1.1157615634094089e-02
    Z_368_1_3  constraint1_3681  1
    Z_368_1_3  constraint2_3683  1
    Z_368_6_0  OBJ       -1.1827794453817565e-01
    Z_368_6_0  constraint1_3686  1
    Z_368_6_0  constraint2_3680  1
    Z_368_6_1  OBJ       -1.8737483122012885e-01
    Z_368_6_1  constraint1_3686  1
    Z_368_6_1  constraint2_3681  1
    Z_368_6_2  OBJ       -1.1801626530546717e-02
    Z_368_6_2  constraint1_3686  1
    Z_368_6_2  constraint2_3682  1
    Z_368_6_3  OBJ       -7.2670551384350857e-02
    Z_368_6_3  constraint1_3686  1
    Z_368_6_3  constraint2_3683  1
    Z_368_2_0  OBJ       -2.8476761269359153e-02
    Z_368_2_0  constraint1_3682  1
    Z_368_2_0  constraint2_3680  1
    Z_368_2_1  OBJ       -1.2544769272473177e-01
    Z_368_2_1  constraint1_3682  1
    Z_368_2_1  constraint2_3681  1
    Z_368_2_2  OBJ       -1.9840630559451133e-02
    Z_368_2_2  constraint1_3682  1
    Z_368_2_2  constraint2_3682  1
    Z_368_2_3  OBJ       -3.6707178275912619e-02
    Z_368_2_3  constraint1_3682  1
    Z_368_2_3  constraint2_3683  1
    Z_368_7_0  OBJ       -1.0644240951115377e-01
    Z_368_7_0  constraint1_3687  1
    Z_368_7_0  constraint2_3680  1
    Z_368_7_1  OBJ       -1.3800984222569992e-01
    Z_368_7_1  constraint1_3687  1
    Z_368_7_1  constraint2_3681  1
    Z_368_7_2  OBJ       -5.2000227501889261e-03
    Z_368_7_2  constraint1_3687  1
    Z_368_7_2  constraint2_3682  1
    Z_368_7_3  OBJ       -3.6867856281702416e-02
    Z_368_7_3  constraint1_3687  1
    Z_368_7_3  constraint2_3683  1
    Z_368_4_0  OBJ       -4.5573724712570157e-03
    Z_368_4_0  constraint1_3684  1
    Z_368_4_0  constraint2_3680  1
    Z_368_4_1  OBJ       -4.5288825036746354e-02
    Z_368_4_1  constraint1_3684  1
    Z_368_4_1  constraint2_3681  1
    Z_368_4_2  OBJ       -1.1192011739674672e-01
    Z_368_4_2  constraint1_3684  1
    Z_368_4_2  constraint2_3682  1
    Z_368_4_3  OBJ       -3.2552683629293748e-02
    Z_368_4_3  constraint1_3684  1
    Z_368_4_3  constraint2_3683  1
    Z_368_0_0  OBJ       -1.0644240951115377e-01
    Z_368_0_0  constraint1_3680  1
    Z_368_0_0  constraint2_3680  1
    Z_368_0_1  OBJ       -1.3800984222569992e-01
    Z_368_0_1  constraint1_3680  1
    Z_368_0_1  constraint2_3681  1
    Z_368_0_2  OBJ       -5.2000227501889261e-03
    Z_368_0_2  constraint1_3680  1
    Z_368_0_2  constraint2_3682  1
    Z_368_0_3  OBJ       -3.6867856281702416e-02
    Z_368_0_3  constraint1_3680  1
    Z_368_0_3  constraint2_3683  1
    Z_312_0_0  OBJ       -1.0512140506688406e-02
    Z_312_0_0  constraint1_3120  1
    Z_312_0_0  constraint2_3120  1
    Z_312_0_1  OBJ       -6.1356221039872394e-01
    Z_312_0_1  constraint1_3120  1
    Z_312_0_1  constraint2_3121  1
    Z_312_0_2  OBJ       -8.2454631604500409e-02
    Z_312_0_2  constraint1_3120  1
    Z_312_0_2  constraint2_3122  1
    Z_312_0_3  OBJ       -2.4206954994335811e-01
    Z_312_0_3  constraint1_3120  1
    Z_312_0_3  constraint2_3123  1
    Z_501_0_0  OBJ       -5.6496769375763310e-03
    Z_501_0_0  constraint1_5010  1
    Z_501_0_0  constraint2_5010  1
    Z_501_0_1  OBJ       -4.6125553612960174e-01
    Z_501_0_1  constraint1_5010  1
    Z_501_0_1  constraint2_5011  1
    Z_501_0_2  OBJ       -2.5222762445872505e-02
    Z_501_0_2  constraint1_5010  1
    Z_501_0_2  constraint2_5012  1
    Z_501_0_3  OBJ       -4.3693312708815879e-02
    Z_501_0_3  constraint1_5010  1
    Z_501_0_3  constraint2_5013  1
    Z_575_1_0  OBJ       -1.0534247030683874e-02
    Z_575_1_0  constraint1_5751  1
    Z_575_1_0  constraint2_5750  1
    Z_575_1_1  OBJ       -5.9349045280741974e-02
    Z_575_1_1  constraint1_5751  1
    Z_575_1_1  constraint2_5751  1
    Z_575_1_2  OBJ       -4.0240382081535644e-02
    Z_575_1_2  constraint1_5751  1
    Z_575_1_2  constraint2_5752  1
    Z_575_1_3  OBJ       -1.2702791277106306e-02
    Z_575_1_3  constraint1_5751  1
    Z_575_1_3  constraint2_5753  1
    Z_575_2_0  OBJ       -2.0982653428674836e-02
    Z_575_2_0  constraint1_5752  1
    Z_575_2_0  constraint2_5750  1
    Z_575_2_1  OBJ       -3.7523709235937808e-01
    Z_575_2_1  constraint1_5752  1
    Z_575_2_1  constraint2_5751  1
    Z_575_2_2  OBJ       -3.0850512521545571e-02
    Z_575_2_2  constraint1_5752  1
    Z_575_2_2  constraint2_5752  1
    Z_575_2_3  OBJ       -3.9191600510867987e-02
    Z_575_2_3  constraint1_5752  1
    Z_575_2_3  constraint2_5753  1
    Z_575_0_0  OBJ       -1.4560115052677647e-02
    Z_575_0_0  constraint1_5750  1
    Z_575_0_0  constraint2_5750  1
    Z_575_0_1  OBJ       -3.6587195016000490e-01
    Z_575_0_1  constraint1_5750  1
    Z_575_0_1  constraint2_5751  1
    Z_575_0_2  OBJ       -6.1427550024674753e-02
    Z_575_0_2  constraint1_5750  1
    Z_575_0_2  constraint2_5752  1
    Z_575_0_3  OBJ       -6.9105869146770402e-02
    Z_575_0_3  constraint1_5750  1
    Z_575_0_3  constraint2_5753  1
    Z_575_3_0  OBJ       -1.4560115052677647e-02
    Z_575_3_0  constraint1_5753  1
    Z_575_3_0  constraint2_5750  1
    Z_575_3_1  OBJ       -3.6587195016000490e-01
    Z_575_3_1  constraint1_5753  1
    Z_575_3_1  constraint2_5751  1
    Z_575_3_2  OBJ       -6.1427550024674753e-02
    Z_575_3_2  constraint1_5753  1
    Z_575_3_2  constraint2_5752  1
    Z_575_3_3  OBJ       -6.9105869146770402e-02
    Z_575_3_3  constraint1_5753  1
    Z_575_3_3  constraint2_5753  1
    Z_529_1_0  OBJ       -5.9620339964886141e-03
    Z_529_1_0  constraint1_5291  1
    Z_529_1_0  constraint2_5290  1
    Z_529_1_1  OBJ       -1.6597208305497168e-02
    Z_529_1_1  constraint1_5291  1
    Z_529_1_1  constraint2_5291  1
    Z_529_1_2  OBJ       -3.9741516749120256e-02
    Z_529_1_2  constraint1_5291  1
    Z_529_1_2  constraint2_5292  1
    Z_529_1_3  OBJ       -1.1084534176561229e-02
    Z_529_1_3  constraint1_5291  1
    Z_529_1_3  constraint2_5293  1
    Z_529_2_0  OBJ       -1.0230642568739590e-02
    Z_529_2_0  constraint1_5292  1
    Z_529_2_0  constraint2_5290  1
    Z_529_2_1  OBJ       -6.4407379658455263e-02
    Z_529_2_1  constraint1_5292  1
    Z_529_2_1  constraint2_5291  1
    Z_529_2_2  OBJ       -8.1165809352726995e-03
    Z_529_2_2  constraint1_5292  1
    Z_529_2_2  constraint2_5292  1
    Z_529_2_3  OBJ       -2.5167896852893501e-02
    Z_529_2_3  constraint1_5292  1
    Z_529_2_3  constraint2_5293  1
    Z_529_3_0  OBJ       -2.3131361610347023e-02
    Z_529_3_0  constraint1_5293  1
    Z_529_3_0  constraint2_5290  1
    Z_529_3_1  OBJ       -9.2030694459241807e-02
    Z_529_3_1  constraint1_5293  1
    Z_529_3_1  constraint2_5291  1
    Z_529_3_2  OBJ       -1.9185358551120781e-02
    Z_529_3_2  constraint1_5293  1
    Z_529_3_2  constraint2_5292  1
    Z_529_3_3  OBJ       -4.6448056041424476e-02
    Z_529_3_3  constraint1_5293  1
    Z_529_3_3  constraint2_5293  1
    Z_529_0_0  OBJ       -1.5999861341619126e-02
    Z_529_0_0  constraint1_5290  1
    Z_529_0_0  constraint2_5290  1
    Z_529_0_1  OBJ       -3.4451965284579646e-02
    Z_529_0_1  constraint1_5290  1
    Z_529_0_1  constraint2_5291  1
    Z_529_0_2  OBJ       -2.0003752963526678e-01
    Z_529_0_2  constraint1_5290  1
    Z_529_0_2  constraint2_5292  1
    Z_529_0_3  OBJ       -8.4964730938474342e-02
    Z_529_0_3  constraint1_5290  1
    Z_529_0_3  constraint2_5293  1
    Z_466_0_0  OBJ       -4.6163506347822735e-04
    Z_466_0_0  constraint1_4660  1
    Z_466_0_0  constraint2_4660  1
    Z_466_0_1  OBJ       -6.1543068182935104e-02
    Z_466_0_1  constraint1_4660  1
    Z_466_0_1  constraint2_4661  1
    Z_466_0_2  OBJ       -6.2811683047707656e-01
    Z_466_0_2  constraint1_4660  1
    Z_466_0_2  constraint2_4662  1
    Z_466_0_3  OBJ       -6.5657602782674762e-03
    Z_466_0_3  constraint1_4660  1
    Z_466_0_3  constraint2_4663  1
    MARKER    'MARKER'                 'INTEND'
RHS
    RHS1      constraint1_4140  1
    RHS1      constraint1_3685  1
    RHS1      constraint1_3683  1
    RHS1      constraint1_3681  1
    RHS1      constraint1_3686  1
    RHS1      constraint1_3682  1
    RHS1      constraint1_3687  1
    RHS1      constraint1_3684  1
    RHS1      constraint1_3680  1
    RHS1      constraint1_3120  1
    RHS1      constraint1_5010  1
    RHS1      constraint1_5751  1
    RHS1      constraint1_5752  1
    RHS1      constraint1_5750  1
    RHS1      constraint1_5753  1
    RHS1      constraint1_5291  1
    RHS1      constraint1_5292  1
    RHS1      constraint1_5293  1
    RHS1      constraint1_5290  1
    RHS1      constraint1_4660  1
    RHS1      constraint2_4140  1
    RHS1      constraint2_4141  1
    RHS1      constraint2_4142  1
    RHS1      constraint2_4143  1
    RHS1      constraint2_3680  1
    RHS1      constraint2_3681  1
    RHS1      constraint2_3682  1
    RHS1      constraint2_3683  1
    RHS1      constraint2_3120  1
    RHS1      constraint2_3121  1
    RHS1      constraint2_3122  1
    RHS1      constraint2_3123  1
    RHS1      constraint2_5010  1
    RHS1      constraint2_5011  1
    RHS1      constraint2_5012  1
    RHS1      constraint2_5013  1
    RHS1      constraint2_5750  1
    RHS1      constraint2_5751  1
    RHS1      constraint2_5752  1
    RHS1      constraint2_5753  1
    RHS1      constraint2_5290  1
    RHS1      constraint2_5291  1
    RHS1      constraint2_5292  1
    RHS1      constraint2_5293  1
    RHS1      constraint2_4660  1
    RHS1      constraint2_4661  1
    RHS1      constraint2_4662  1
    RHS1      constraint2_4663  1
BOUNDS
 UP BND1      Z_414_0_0  1
 UP BND1      Z_414_0_1  1
 UP BND1      Z_414_0_2  1
 UP BND1      Z_414_0_3  1
 UP BND1      Z_368_5_0  1
 UP BND1      Z_368_5_1  1
 UP BND1      Z_368_5_2  1
 UP BND1      Z_368_5_3  1
 UP BND1      Z_368_3_0  1
 UP BND1      Z_368_3_1  1
 UP BND1      Z_368_3_2  1
 UP BND1      Z_368_3_3  1
 UP BND1      Z_368_1_0  1
 UP BND1      Z_368_1_1  1
 UP BND1      Z_368_1_2  1
 UP BND1      Z_368_1_3  1
 UP BND1      Z_368_6_0  1
 UP BND1      Z_368_6_1  1
 UP BND1      Z_368_6_2  1
 UP BND1      Z_368_6_3  1
 UP BND1      Z_368_2_0  1
 UP BND1      Z_368_2_1  1
 UP BND1      Z_368_2_2  1
 UP BND1      Z_368_2_3  1
 UP BND1      Z_368_7_0  1
 UP BND1      Z_368_7_1  1
 UP BND1      Z_368_7_2  1
 UP BND1      Z_368_7_3  1
 UP BND1      Z_368_4_0  1
 UP BND1      Z_368_4_1  1
 UP BND1      Z_368_4_2  1
 UP BND1      Z_368_4_3  1
 UP BND1      Z_368_0_0  1
 UP BND1      Z_368_0_1  1
 UP BND1      Z_368_0_2  1
 UP BND1      Z_368_0_3  1
 UP BND1      Z_312_0_0  1
 UP BND1      Z_312_0_1  1
 UP BND1      Z_312_0_2  1
 UP BND1      Z_312_0_3  1
 UP BND1      Z_501_0_0  1
 UP BND1      Z_501_0_1  1
 UP BND1      Z_501_0_2  1
 UP BND1      Z_501_0_3  1
 UP BND1      Z_575_1_0  1
 UP BND1      Z_575_1_1  1
 UP BND1      Z_575_1_2  1
 UP BND1      Z_575_1_3  1
 UP BND1      Z_575_2_0  1
 UP BND1      Z_575_2_1  1
 UP BND1      Z_575_2_2  1
 UP BND1      Z_575_2_3  1
 UP BND1      Z_575_0_0  1
 UP BND1      Z_575_0_1  1
 UP BND1      Z_575_0_2  1
 UP BND1      Z_575_0_3  1
 UP BND1      Z_575_3_0  1
 UP BND1      Z_575_3_1  1
 UP BND1      Z_575_3_2  1
 UP BND1      Z_575_3_3  1
 UP BND1      Z_529_1_0  1
 UP BND1      Z_529_1_1  1
 UP BND1      Z_529_1_2  1
 UP BND1      Z_529_1_3  1
 UP BND1      Z_529_2_0  1
 UP BND1      Z_529_2_1  1
 UP BND1      Z_529_2_2  1
 UP BND1      Z_529_2_3  1
 UP BND1      Z_529_3_0  1
 UP BND1      Z_529_3_1  1
 UP BND1      Z_529_3_2  1
 UP BND1      Z_529_3_3  1
 UP BND1      Z_529_0_0  1
 UP BND1      Z_529_0_1  1
 UP BND1      Z_529_0_2  1
 UP BND1      Z_529_0_3  1
 UP BND1      Z_466_0_0  1
 UP BND1      Z_466_0_1  1
 UP BND1      Z_466_0_2  1
 UP BND1      Z_466_0_3  1
QUADOBJ
    Z_414_0_0  Z_368_5_0  -2.2222222222222216e-02
    Z_414_0_0  Z_368_6_0  -8.1512195620560680e-04
    Z_414_0_0  Z_368_2_0  -5.1223794034301683e-02
    Z_414_0_0  Z_368_4_0  -3.9166473645475966e-03
    Z_414_0_0  Z_312_0_0  -1.0768889834760742e-02
    Z_414_0_0  Z_501_0_0  -5.4529454712996970e-03
    Z_414_0_0  Z_575_2_0  -2.0322179699359549e-02
    Z_414_0_0  Z_575_0_0  -8.4988125087142360e-02
    Z_414_0_0  Z_575_3_0  -4.7273659671511155e-02
    Z_414_0_0  Z_466_0_0  -1.9999999999999996e-01
    Z_414_0_1  Z_368_5_1  -2.2222222222222216e-02
    Z_414_0_1  Z_368_6_1  -8.1512195620560680e-04
    Z_414_0_1  Z_368_2_1  -5.1223794034301683e-02
    Z_414_0_1  Z_368_4_1  -3.9166473645475966e-03
    Z_414_0_1  Z_312_0_1  -1.0768889834760742e-02
    Z_414_0_1  Z_501_0_1  -5.4529454712996970e-03
    Z_414_0_1  Z_575_2_1  -2.0322179699359549e-02
    Z_414_0_1  Z_575_0_1  -8.4988125087142360e-02
    Z_414_0_1  Z_575_3_1  -4.7273659671511155e-02
    Z_414_0_1  Z_466_0_1  -1.9999999999999996e-01
    Z_414_0_2  Z_368_5_2  -2.2222222222222216e-02
    Z_414_0_2  Z_368_6_2  -8.1512195620560680e-04
    Z_414_0_2  Z_368_2_2  -5.1223794034301683e-02
    Z_414_0_2  Z_368_4_2  -3.9166473645475966e-03
    Z_414_0_2  Z_312_0_2  -1.0768889834760742e-02
    Z_414_0_2  Z_501_0_2  -5.4529454712996970e-03
    Z_414_0_2  Z_575_2_2  -2.0322179699359549e-02
    Z_414_0_2  Z_575_0_2  -8.4988125087142360e-02
    Z_414_0_2  Z_575_3_2  -4.7273659671511155e-02
    Z_414_0_2  Z_466_0_2  -1.9999999999999996e-01
    Z_414_0_3  Z_368_5_3  -2.2222222222222216e-02
    Z_414_0_3  Z_368_6_3  -8.1512195620560680e-04
    Z_414_0_3  Z_368_2_3  -5.1223794034301683e-02
    Z_414_0_3  Z_368_4_3  -3.9166473645475966e-03
    Z_414_0_3  Z_312_0_3  -1.0768889834760742e-02
    Z_414_0_3  Z_501_0_3  -5.4529454712996970e-03
    Z_414_0_3  Z_575_2_3  -2.0322179699359549e-02
    Z_414_0_3  Z_575_0_3  -8.4988125087142360e-02
    Z_414_0_3  Z_575_3_3  -4.7273659671511155e-02
    Z_414_0_3  Z_466_0_3  -1.9999999999999996e-01
    Z_368_5_0  Z_312_0_0  -4.5913682277318632e-05
    Z_368_5_0  Z_501_0_0  -2.1266540642722112e-02
    Z_368_5_0  Z_575_0_0  -1.4223219281112672e-02
    Z_368_5_0  Z_575_3_0  -7.9115008954388517e-03
    Z_368_5_0  Z_466_0_0  -3.3471074380165285e-02
    Z_368_5_1  Z_312_0_1  -4.5913682277318632e-05
    Z_368_5_1  Z_501_0_1  -2.1266540642722112e-02
    Z_368_5_1  Z_575_0_1  -1.4223219281112672e-02
    Z_368_5_1  Z_575_3_1  -7.9115008954388517e-03
    Z_368_5_1  Z_466_0_1  -3.3471074380165285e-02
    Z_368_5_2  Z_312_0_2  -4.5913682277318632e-05
    Z_368_5_2  Z_501_0_2  -2.1266540642722112e-02
    Z_368_5_2  Z_575_0_2  -1.4223219281112672e-02
    Z_368_5_2  Z_575_3_2  -7.9115008954388517e-03
    Z_368_5_2  Z_466_0_2  -3.3471074380165285e-02
    Z_368_5_3  Z_312_0_3  -4.5913682277318632e-05
    Z_368_5_3  Z_501_0_3  -2.1266540642722112e-02
    Z_368_5_3  Z_575_0_3  -1.4223219281112672e-02
    Z_368_5_3  Z_575_3_3  -7.9115008954388517e-03
    Z_368_5_3  Z_466_0_3  -3.3471074380165285e-02
    Z_368_3_0  Z_575_2_0  -1.9999999999999996e-01
    Z_368_3_0  Z_529_2_0  -1.9999999999999996e-01
    Z_368_3_1  Z_575_2_1  -1.9999999999999996e-01
    Z_368_3_1  Z_529_2_1  -1.9999999999999996e-01
    Z_368_3_2  Z_575_2_2  -1.9999999999999996e-01
    Z_368_3_2  Z_529_2_2  -1.9999999999999996e-01
    Z_368_3_3  Z_575_2_3  -1.9999999999999996e-01
    Z_368_3_3  Z_529_2_3  -1.9999999999999996e-01
    Z_368_1_0  Z_575_1_0  -1.9999999999999996e-01
    Z_368_1_0  Z_529_1_0  -1.9999999999999996e-01
    Z_368_1_1  Z_575_1_1  -1.9999999999999996e-01
    Z_368_1_1  Z_529_1_1  -1.9999999999999996e-01
    Z_368_1_2  Z_575_1_2  -1.9999999999999996e-01
    Z_368_1_2  Z_529_1_2  -1.9999999999999996e-01
    Z_368_1_3  Z_575_1_3  -1.9999999999999996e-01
    Z_368_1_3  Z_529_1_3  -1.9999999999999996e-01
    Z_368_6_0  Z_312_0_0  -9.0148099944396584e-02
    Z_368_6_0  Z_501_0_0  -1.0985190005560337e-01
    Z_368_6_0  Z_575_0_0  -3.2972895178436773e-03
    Z_368_6_0  Z_575_3_0  -1.8340790827560572e-03
    Z_368_6_0  Z_466_0_0  -7.7594123048668482e-03
    Z_368_6_1  Z_312_0_1  -9.0148099944396584e-02
    Z_368_6_1  Z_501_0_1  -1.0985190005560337e-01
    Z_368_6_1  Z_575_0_1  -3.2972895178436773e-03
    Z_368_6_1  Z_575_3_1  -1.8340790827560572e-03
    Z_368_6_1  Z_466_0_1  -7.7594123048668482e-03
    Z_368_6_2  Z_312_0_2  -9.0148099944396584e-02
    Z_368_6_2  Z_501_0_2  -1.0985190005560337e-01
    Z_368_6_2  Z_575_0_2  -3.2972895178436773e-03
    Z_368_6_2  Z_575_3_2  -1.8340790827560572e-03
    Z_368_6_2  Z_466_0_2  -7.7594123048668482e-03
    Z_368_6_3  Z_312_0_3  -9.0148099944396584e-02
    Z_368_6_3  Z_501_0_3  -1.0985190005560337e-01
    Z_368_6_3  Z_575_0_3  -3.2972895178436773e-03
    Z_368_6_3  Z_575_3_3  -1.8340790827560572e-03
    Z_368_6_3  Z_466_0_3  -7.7594123048668482e-03
    Z_368_2_0  Z_312_0_0  -1.9999999999999996e-01
    Z_368_2_0  Z_575_2_0  -5.1223794034301683e-02
    Z_368_2_1  Z_312_0_1  -1.9999999999999996e-01
    Z_368_2_1  Z_575_2_1  -5.1223794034301683e-02
    Z_368_2_2  Z_312_0_2  -1.9999999999999996e-01
    Z_368_2_2  Z_575_2_2  -5.1223794034301683e-02
    Z_368_2_3  Z_312_0_3  -1.9999999999999996e-01
    Z_368_2_3  Z_575_2_3  -5.1223794034301683e-02
    Z_368_4_0  Z_312_0_0  -2.9247004014928944e-02
    Z_368_4_0  Z_501_0_0  -3.0732906532898879e-02
    Z_368_4_0  Z_575_0_0  -1.4223219281112672e-02
    Z_368_4_0  Z_575_3_0  -7.9115008954388517e-03
    Z_368_4_0  Z_529_3_0  -5.2065386800514903e-02
    Z_368_4_0  Z_466_0_0  -3.3471074380165285e-02
    Z_368_4_1  Z_312_0_1  -2.9247004014928944e-02
    Z_368_4_1  Z_501_0_1  -3.0732906532898879e-02
    Z_368_4_1  Z_575_0_1  -1.4223219281112672e-02
    Z_368_4_1  Z_575_3_1  -7.9115008954388517e-03
    Z_368_4_1  Z_529_3_1  -5.2065386800514903e-02
    Z_368_4_1  Z_466_0_1  -3.3471074380165285e-02
    Z_368_4_2  Z_312_0_2  -2.9247004014928944e-02
    Z_368_4_2  Z_501_0_2  -3.0732906532898879e-02
    Z_368_4_2  Z_575_0_2  -1.4223219281112672e-02
    Z_368_4_2  Z_575_3_2  -7.9115008954388517e-03
    Z_368_4_2  Z_529_3_2  -5.2065386800514903e-02
    Z_368_4_2  Z_466_0_2  -3.3471074380165285e-02
    Z_368_4_3  Z_312_0_3  -2.9247004014928944e-02
    Z_368_4_3  Z_501_0_3  -3.0732906532898879e-02
    Z_368_4_3  Z_575_0_3  -1.4223219281112672e-02
    Z_368_4_3  Z_575_3_3  -7.9115008954388517e-03
    Z_368_4_3  Z_529_3_3  -5.2065386800514903e-02
    Z_368_4_3  Z_466_0_3  -3.3471074380165285e-02
    Z_312_0_0  Z_501_0_0  -5.9662261670595337e-02
    Z_312_0_0  Z_575_2_0  -5.1110912619095804e-02
    Z_312_0_0  Z_575_0_0  -9.6485021327311751e-02
    Z_312_0_0  Z_575_3_0  -5.3668674970168084e-02
    Z_312_0_0  Z_529_2_0  -4.2541390831646424e-02
    Z_312_0_0  Z_466_0_0  -7.7594123048668482e-03
    Z_312_0_1  Z_501_0_1  -5.9662261670595337e-02
    Z_312_0_1  Z_575_2_1  -5.1110912619095804e-02
    Z_312_0_1  Z_575_0_1  -9.6485021327311751e-02
    Z_312_0_1  Z_575_3_1  -5.3668674970168084e-02
    Z_312_0_1  Z_529_2_1  -4.2541390831646424e-02
    Z_312_0_1  Z_466_0_1  -7.7594123048668482e-03
    Z_312_0_2  Z_501_0_2  -5.9662261670595337e-02
    Z_312_0_2  Z_575_2_2  -5.1110912619095804e-02
    Z_312_0_2  Z_575_0_2  -9.6485021327311751e-02
    Z_312_0_2  Z_575_3_2  -5.3668674970168084e-02
    Z_312_0_2  Z_529_2_2  -4.2541390831646424e-02
    Z_312_0_2  Z_466_0_2  -7.7594123048668482e-03
    Z_312_0_3  Z_501_0_3  -5.9662261670595337e-02
    Z_312_0_3  Z_575_2_3  -5.1110912619095804e-02
    Z_312_0_3  Z_575_0_3  -9.6485021327311751e-02
    Z_312_0_3  Z_575_3_3  -5.3668674970168084e-02
    Z_312_0_3  Z_529_2_3  -4.2541390831646424e-02
    Z_312_0_3  Z_466_0_3  -7.7594123048668482e-03
    Z_501_0_0  Z_575_2_0  -3.7933184484926254e-02
    Z_501_0_0  Z_575_0_0  -1.3125494788035730e-01
    Z_501_0_0  Z_575_3_0  -7.3009043674463509e-02
    Z_501_0_0  Z_529_2_0  -4.2541390831646424e-02
    Z_501_0_0  Z_529_3_0  -2.9651465972617272e-03
    Z_501_0_0  Z_466_0_0  -4.9999999999999989e-02
    Z_501_0_1  Z_575_2_1  -3.7933184484926254e-02
    Z_501_0_1  Z_575_0_1  -1.3125494788035730e-01
    Z_501_0_1  Z_575_3_1  -7.3009043674463509e-02
    Z_501_0_1  Z_529_2_1  -4.2541390831646424e-02
    Z_501_0_1  Z_529_3_1  -2.9651465972617272e-03
    Z_501_0_1  Z_466_0_1  -4.9999999999999989e-02
    Z_501_0_2  Z_575_2_2  -3.7933184484926254e-02
    Z_501_0_2  Z_575_0_2  -1.3125494788035730e-01
    Z_501_0_2  Z_575_3_2  -7.3009043674463509e-02
    Z_501_0_2  Z_529_2_2  -4.2541390831646424e-02
    Z_501_0_2  Z_529_3_2  -2.9651465972617272e-03
    Z_501_0_2  Z_466_0_2  -4.9999999999999989e-02
    Z_501_0_3  Z_575_2_3  -3.7933184484926254e-02
    Z_501_0_3  Z_575_0_3  -1.3125494788035730e-01
    Z_501_0_3  Z_575_3_3  -7.3009043674463509e-02
    Z_501_0_3  Z_529_2_3  -4.2541390831646424e-02
    Z_501_0_3  Z_529_3_3  -2.9651465972617272e-03
    Z_501_0_3  Z_466_0_3  -4.9999999999999989e-02
    Z_575_1_0  Z_529_1_0  -1.9999999999999996e-01
    Z_575_1_1  Z_529_1_1  -1.9999999999999996e-01
    Z_575_1_2  Z_529_1_2  -1.9999999999999996e-01
    Z_575_1_3  Z_529_1_3  -1.9999999999999996e-01
    Z_575_2_0  Z_529_2_0  -1.2249164785740467e-01
    Z_575_2_0  Z_466_0_0  -5.6423611111111112e-02
    Z_575_2_1  Z_529_2_1  -1.2249164785740467e-01
    Z_575_2_1  Z_466_0_1  -5.6423611111111112e-02
    Z_575_2_2  Z_529_2_2  -1.2249164785740467e-01
    Z_575_2_2  Z_466_0_2  -5.6423611111111112e-02
    Z_575_2_3  Z_529_2_3  -1.2249164785740467e-01
    Z_575_2_3  Z_466_0_3  -5.6423611111111112e-02
    Z_575_0_0  Z_529_2_0  -1.1501187491285758e-01
    Z_575_0_0  Z_466_0_0  -1.9999999999999996e-01
    Z_575_0_1  Z_529_2_1  -1.1501187491285758e-01
    Z_575_0_1  Z_466_0_1  -1.9999999999999996e-01
    Z_575_0_2  Z_529_2_2  -1.1501187491285758e-01
    Z_575_0_2  Z_466_0_2  -1.9999999999999996e-01
    Z_575_0_3  Z_529_2_3  -1.1501187491285758e-01
    Z_575_0_3  Z_466_0_3  -1.9999999999999996e-01
    Z_575_3_0  Z_529_2_0  -6.3974022573600645e-02
    Z_575_3_0  Z_466_0_0  -1.9999999999999996e-01
    Z_575_3_1  Z_529_2_1  -6.3974022573600645e-02
    Z_575_3_1  Z_466_0_1  -1.9999999999999996e-01
    Z_575_3_2  Z_529_2_2  -6.3974022573600645e-02
    Z_575_3_2  Z_466_0_2  -1.9999999999999996e-01
    Z_575_3_3  Z_529_2_3  -6.3974022573600645e-02
    Z_575_3_3  Z_466_0_3  -1.9999999999999996e-01
ENDATA
